# Initialization
units metal
boundary p p p
atom_style full
neighbor 1.0 bin
neigh_modify delay 1

# System definition
read_data data.amorphousSiO

# Simulation settings
pair_style vashishta
pair_coeff * * SiO.1990.vashishta Si O
dump dmp all atom 1000 dump.lammpstrj

#run
fix nvt1 all nvt temp 300 300 0.1
timestep 0.001 
thermo 1000 
variable var loop 35
label loop
change_box all z scale 1.005 remap
run 2000
next var
jump crack.lammps loop
run 20000
write_data data.dilatedSiO
